c SAT Generator for power-law distributed variable frequencies
c -g u -v 20 -c 91 -k 3 -p 2.750000 -b 3.200000 -f /home/schmidt/Devel/ni-kop-sat/data/ensemble/ruf20-91/ruf20-91-965 -u 1 -U 1 -s 1094422216
p cnf 20 91
12 -13 18 0
12 -14 19 0
3 -17 19 0
-2 -8 -13 0
-11 -17 -18 0
8 9 15 0
2 15 17 0
2 19 20 0
-2 -5 14 0
8 14 -15 0
1 -6 14 0
2 -18 -20 0
3 9 -12 0
-2 -10 17 0
9 -10 19 0
-1 6 -13 0
-4 13 -16 0
3 -10 18 0
-5 14 -18 0
5 12 -19 0
-2 5 12 0
-1 -4 16 0
-1 6 15 0
-2 -4 16 0
-3 8 20 0
1 11 17 0
4 -8 13 0
5 9 12 0
1 -12 16 0
6 9 -20 0
2 8 -17 0
2 5 -15 0
7 -8 -15 0
-10 -14 -20 0
15 18 -20 0
8 -13 14 0
4 -8 12 0
-4 -9 -17 0
4 -11 -15 0
4 13 17 0
-3 6 -17 0
2 4 -9 0
-3 13 -18 0
-5 9 -17 0
-7 15 20 0
-5 -18 20 0
-1 -15 19 0
2 -4 18 0
-3 4 6 0
2 9 -19 0
1 -4 18 0
-5 15 -20 0
-4 15 -18 0
-3 -4 6 0
-3 16 -17 0
-7 8 19 0
6 -15 -18 0
5 -12 19 0
5 9 18 0
-2 12 -16 0
-6 14 15 0
2 -8 9 0
2 8 -20 0
-3 8 -11 0
10 -12 -15 0
-17 19 20 0
-5 14 -15 0
-13 -15 -18 0
-4 13 -15 0
-3 8 16 0
2 3 -18 0
-1 4 -12 0
3 10 -19 0
8 -14 -15 0
1 10 -11 0
6 17 -20 0
-8 -11 16 0
-7 13 18 0
-4 12 -16 0
2 -8 -15 0
7 9 20 0
3 -8 -12 0
-11 -13 -17 0
1 -7 -12 0
-4 9 20 0
-3 16 -18 0
-1 12 15 0
1 15 17 0
-4 13 14 0
-1 14 -15 0
-1 -4 15 0
